% seed = 8061496

mint = 28;
% maxt = 93;

nActs = 22;
dur = [0,5,6,7,4,3,2,7,1,3,5,4,2,1,4,10,1,5,8,7,8,0];

nSkills = 4;
sreq = [| 0,0,0,0,
	| 2,1,1,3,
	| 3,3,2,2,
	| 1,3,3,1,
	| 1,3,3,2,
	| 1,3,2,2,
	| 3,2,1,1,
	| 2,1,1,3,
	| 3,3,2,1,
	| 3,2,1,1,
	| 1,3,2,2,
	| 3,2,1,3,
	| 1,2,3,1,
	| 3,3,1,2,
	| 3,1,1,2,
	| 2,2,3,2,
	| 2,3,3,2,
	| 2,2,1,2,
	| 2,1,1,2,
	| 1,1,3,2,
	| 3,3,1,2,
	| 0,0,0,0, |];

nResources = 20;
mastery = [| false,true,false,true,
	| false,false,true,true,
	| false,true,true,true,
	| false,false,false,true,
	| false,true,false,true,
	| true,false,true,true,
	| true,false,true,false,
	| true,false,true,true,
	| false,false,false,true,
	| false,true,false,true,
	| false,false,false,true,
	| false,false,false,true,
	| true,true,false,true,
	| false,true,true,false,
	| false,true,false,true,
	| false,true,false,false,
	| true,false,true,true,
	| true,false,false,false,
	| true,false,false,true,
	| true,true,false,true, |];

nPrecs = 37;
pred = [1,1,1,2,2,3,3,3,4,4,4,5,5,6,6,7,8,8,9,10,10,10,11,12,12,13,14,14,15,16,17,17,18,18,19,20,21];
succ = [2,3,4,13,6,13,6,8,13,5,7,10,15,11,14,16,9,17,15,17,18,12,19,21,14,16,19,20,20,17,19,21,20,21,22,22,22];

nUnrels = 105;
unpred = [2,2,2,2,2,2,2,2,2,2,3,3,3,3,3,3,4,4,4,4,5,5,5,5,5,5,5,6,6,6,6,6,6,6,6,6,6,6,7,7,7,7,7,7,7,7,7,7,8,8,8,8,8,8,8,9,9,9,9,9,9,9,9,9,9,10,10,10,10,11,11,11,11,11,11,11,11,11,12,12,12,12,12,13,13,13,13,14,14,14,14,14,15,15,15,15,15,16,16,17,17,18,19,19,20];
unsucc = [3,4,5,7,8,9,10,12,15,18,4,5,7,10,12,18,6,8,9,11,6,7,8,9,11,13,16,7,8,9,10,12,13,15,16,17,18,21,8,9,10,11,12,13,14,15,18,20,10,11,12,13,14,16,18,10,11,12,13,14,16,17,18,19,21,11,13,15,16,12,13,14,15,16,17,18,20,21,13,15,16,17,18,14,15,18,20,15,16,17,18,21,16,17,18,19,21,18,20,18,20,19,20,21,21];

USEFUL_RES = [{},
	{1,2,3,4,5,6,7,8,9,10,11,12,13,14,15,16,17,18,19,20},
	{1,2,3,4,5,6,7,8,9,10,11,12,13,14,15,16,17,18,19,20},
	{1,2,3,4,5,6,7,8,9,10,11,12,13,14,15,16,17,18,19,20},
	{1,2,3,4,5,6,7,8,9,10,11,12,13,14,15,16,17,18,19,20},
	{1,2,3,4,5,6,7,8,9,10,11,12,13,14,15,16,17,18,19,20},
	{1,2,3,4,5,6,7,8,9,10,11,12,13,14,15,16,17,18,19,20},
	{1,2,3,4,5,6,7,8,9,10,11,12,13,14,15,16,17,18,19,20},
	{1,2,3,4,5,6,7,8,9,10,11,12,13,14,15,16,17,18,19,20},
	{1,2,3,4,5,6,7,8,9,10,11,12,13,14,15,16,17,18,19,20},
	{1,2,3,4,5,6,7,8,9,10,11,12,13,14,15,16,17,18,19,20},
	{1,2,3,4,5,6,7,8,9,10,11,12,13,14,15,16,17,18,19,20},
	{1,2,3,4,5,6,7,8,9,10,11,12,13,14,15,16,17,18,19,20},
	{1,2,3,4,5,6,7,8,9,10,11,12,13,14,15,16,17,18,19,20},
	{1,2,3,4,5,6,7,8,9,10,11,12,13,14,15,16,17,18,19,20},
	{1,2,3,4,5,6,7,8,9,10,11,12,13,14,15,16,17,18,19,20},
	{1,2,3,4,5,6,7,8,9,10,11,12,13,14,15,16,17,18,19,20},
	{1,2,3,4,5,6,7,8,9,10,11,12,13,14,15,16,17,18,19,20},
	{1,2,3,4,5,6,7,8,9,10,11,12,13,14,15,16,17,18,19,20},
	{1,2,3,4,5,6,7,8,9,10,11,12,13,14,15,16,17,18,19,20},
	{1,2,3,4,5,6,7,8,9,10,11,12,13,14,15,16,17,18,19,20},
	{}];

POTENTIAL_ACT = [{2,3,4,5,6,7,8,9,10,11,12,13,14,15,16,17,18,19,20,21},
	{2,3,4,5,6,7,8,9,10,11,12,13,14,15,16,17,18,19,20,21},
	{2,3,4,5,6,7,8,9,10,11,12,13,14,15,16,17,18,19,20,21},
	{2,3,4,5,6,7,8,9,10,11,12,13,14,15,16,17,18,19,20,21},
	{2,3,4,5,6,7,8,9,10,11,12,13,14,15,16,17,18,19,20,21},
	{2,3,4,5,6,7,8,9,10,11,12,13,14,15,16,17,18,19,20,21},
	{2,3,4,5,6,7,8,9,10,11,12,13,14,15,16,17,18,19,20,21},
	{2,3,4,5,6,7,8,9,10,11,12,13,14,15,16,17,18,19,20,21},
	{2,3,4,5,6,7,8,9,10,11,12,13,14,15,16,17,18,19,20,21},
	{2,3,4,5,6,7,8,9,10,11,12,13,14,15,16,17,18,19,20,21},
	{2,3,4,5,6,7,8,9,10,11,12,13,14,15,16,17,18,19,20,21},
	{2,3,4,5,6,7,8,9,10,11,12,13,14,15,16,17,18,19,20,21},
	{2,3,4,5,6,7,8,9,10,11,12,13,14,15,16,17,18,19,20,21},
	{2,3,4,5,6,7,8,9,10,11,12,13,14,15,16,17,18,19,20,21},
	{2,3,4,5,6,7,8,9,10,11,12,13,14,15,16,17,18,19,20,21},
	{2,3,4,5,6,7,8,9,10,11,12,13,14,15,16,17,18,19,20,21},
	{2,3,4,5,6,7,8,9,10,11,12,13,14,15,16,17,18,19,20,21},
	{2,3,4,5,6,7,8,9,10,11,12,13,14,15,16,17,18,19,20,21},
	{2,3,4,5,6,7,8,9,10,11,12,13,14,15,16,17,18,19,20,21},
	{2,3,4,5,6,7,8,9,10,11,12,13,14,15,16,17,18,19,20,21}];
